(set-info :smt-lib-version 2.6)
(set-logic UFNIA)
(set-info :source |
Generated by: Geoff Sutcliffe
Generated on: 2026-03-11
Generator: TPTPWorld
Application: Benchmarking automated theorem provers
Time limit: 120.0

These benchmarks are translations from the TPTP Library (Thousands of
Problems for Theorem Provers), see http://www.cs.miami.edu/~tptp/

The TPTP is maintained by Geoff Sutcliffe, and he contributed this
selection of benchmarks to SMT-LIB.  They were exported from the
v9.2.1 realease of TPTP.
|)
(set-info :category "industrial")
(set-info :status "unknown")
; SZS status Success
(declare-sort $$unsorted 0)
(declare-sort tptp.uni 0)
(declare-sort tptp.ty 0)
(declare-fun tptp.sort1 (tptp.ty tptp.uni) Bool)
(declare-fun tptp.witness1 (tptp.ty) tptp.uni)
(assert (forall ((A tptp.ty)) (tptp.sort1 A (tptp.witness1 A))))
(declare-fun tptp.int () tptp.ty)
(declare-fun tptp.real () tptp.ty)
(declare-sort tptp.bool1 0)
(declare-fun tptp.bool () tptp.ty)
(declare-fun tptp.true1 () tptp.bool1)
(declare-fun tptp.false1 () tptp.bool1)
(declare-fun tptp.match_bool1 (tptp.ty tptp.bool1 tptp.uni tptp.uni) tptp.uni)
(assert (forall ((A tptp.ty) (X tptp.bool1) (X1 tptp.uni) (X2 tptp.uni)) (tptp.sort1 A (tptp.match_bool1 A X X1 X2))))
(assert (forall ((A tptp.ty) (Z tptp.uni) (Z1 tptp.uni)) (=> (tptp.sort1 A Z) (= (tptp.match_bool1 A tptp.true1 Z Z1) Z))))
(assert (forall ((A tptp.ty) (Z tptp.uni) (Z1 tptp.uni)) (=> (tptp.sort1 A Z1) (= (tptp.match_bool1 A tptp.false1 Z Z1) Z1))))
(assert (not (= tptp.true1 tptp.false1)))
(assert (forall ((U tptp.bool1)) (or (= U tptp.true1) (= U tptp.false1))))
(declare-sort tptp.tuple02 0)
(declare-fun tptp.tuple0 () tptp.ty)
(declare-fun tptp.tuple03 () tptp.tuple02)
(assert (forall ((U tptp.tuple02)) (= U tptp.tuple03)))
(declare-fun tptp.qtmark () tptp.ty)
(declare-fun tptp.list (tptp.ty) tptp.ty)
(declare-fun tptp.nil (tptp.ty) tptp.uni)
(assert (forall ((A tptp.ty)) (tptp.sort1 (tptp.list A) (tptp.nil A))))
(declare-fun tptp.cons (tptp.ty tptp.uni tptp.uni) tptp.uni)
(assert (forall ((A tptp.ty) (X tptp.uni) (X1 tptp.uni)) (tptp.sort1 (tptp.list A) (tptp.cons A X X1))))
(declare-fun tptp.match_list (tptp.ty tptp.ty tptp.uni tptp.uni tptp.uni) tptp.uni)
(assert (forall ((A tptp.ty) (A1 tptp.ty) (X tptp.uni) (X1 tptp.uni) (X2 tptp.uni)) (tptp.sort1 A1 (tptp.match_list A1 A X X1 X2))))
(assert (forall ((A tptp.ty) (A1 tptp.ty) (Z tptp.uni) (Z1 tptp.uni)) (=> (tptp.sort1 A1 Z) (= (tptp.match_list A1 A (tptp.nil A) Z Z1) Z))))
(assert (forall ((A tptp.ty) (A1 tptp.ty) (Z tptp.uni) (Z1 tptp.uni) (U tptp.uni) (U1 tptp.uni)) (=> (tptp.sort1 A1 Z1) (= (tptp.match_list A1 A (tptp.cons A U U1) Z Z1) Z1))))
(assert (forall ((A tptp.ty) (V tptp.uni) (V1 tptp.uni)) (not (= (tptp.nil A) (tptp.cons A V V1)))))
(declare-fun tptp.cons_proj_1 (tptp.ty tptp.uni) tptp.uni)
(assert (forall ((A tptp.ty) (X tptp.uni)) (tptp.sort1 A (tptp.cons_proj_1 A X))))
(assert (forall ((A tptp.ty) (U tptp.uni) (U1 tptp.uni)) (=> (tptp.sort1 A U) (= (tptp.cons_proj_1 A (tptp.cons A U U1)) U))))
(declare-fun tptp.cons_proj_2 (tptp.ty tptp.uni) tptp.uni)
(assert (forall ((A tptp.ty) (X tptp.uni)) (tptp.sort1 (tptp.list A) (tptp.cons_proj_2 A X))))
(assert (forall ((A tptp.ty) (U tptp.uni) (U1 tptp.uni)) (= (tptp.cons_proj_2 A (tptp.cons A U U1)) U1)))
(assert (forall ((A tptp.ty) (U tptp.uni)) (or (= U (tptp.nil A)) (= U (tptp.cons A (tptp.cons_proj_1 A U) (tptp.cons_proj_2 A U))))))
(declare-fun tptp.infix_plpl (tptp.ty tptp.uni tptp.uni) tptp.uni)
(assert (forall ((A tptp.ty) (X tptp.uni) (X1 tptp.uni)) (tptp.sort1 (tptp.list A) (tptp.infix_plpl A X X1))))
(assert (forall ((A tptp.ty) (L2 tptp.uni)) (and (= (tptp.infix_plpl A (tptp.nil A) L2) L2) (forall ((X tptp.uni) (X1 tptp.uni)) (= (tptp.infix_plpl A (tptp.cons A X X1) L2) (tptp.cons A X (tptp.infix_plpl A X1 L2)))))))
(assert (forall ((A tptp.ty) (L1 tptp.uni) (L2 tptp.uni) (L3 tptp.uni)) (= (tptp.infix_plpl A L1 (tptp.infix_plpl A L2 L3)) (tptp.infix_plpl A (tptp.infix_plpl A L1 L2) L3))))
(assert (forall ((A tptp.ty) (L tptp.uni)) (= (tptp.infix_plpl A L (tptp.nil A)) L)))
(assert (forall ((X Int) (Y Int) (Z Int)) (=> (<= X Y) (=> (<= 0 Z) (<= (* X Z) (* Y Z))))))
(declare-fun tptp.length1 (tptp.ty tptp.uni) Int)
(assert (forall ((A tptp.ty)) (and (= (tptp.length1 A (tptp.nil A)) 0) (forall ((X tptp.uni) (X1 tptp.uni)) (= (tptp.length1 A (tptp.cons A X X1)) (+ 1 (tptp.length1 A X1)))))))
(assert (forall ((A tptp.ty) (L tptp.uni)) (<= 0 (tptp.length1 A L))))
(assert (forall ((A tptp.ty) (L tptp.uni)) (= (= (tptp.length1 A L) 0) (= L (tptp.nil A)))))
(assert (forall ((A tptp.ty) (L1 tptp.uni) (L2 tptp.uni)) (= (tptp.length1 A (tptp.infix_plpl A L1 L2)) (+ (tptp.length1 A L1) (tptp.length1 A L2)))))
(declare-fun tptp.mem (tptp.ty tptp.uni tptp.uni) Bool)
(assert (forall ((A tptp.ty) (X tptp.uni)) (=> (tptp.sort1 A X) (and (not (tptp.mem A X (tptp.nil A))) (forall ((X1 tptp.uni) (X2 tptp.uni)) (=> (tptp.sort1 A X1) (= (tptp.mem A X (tptp.cons A X1 X2)) (or (= X X1) (tptp.mem A X X2)))))))))
(assert (forall ((A tptp.ty) (X tptp.uni) (L1 tptp.uni) (L2 tptp.uni)) (= (tptp.mem A X (tptp.infix_plpl A L1 L2)) (or (tptp.mem A X L1) (tptp.mem A X L2)))))
(assert (forall ((A tptp.ty) (X tptp.uni) (L tptp.uni)) (=> (tptp.mem A X L) (exists ((L1 tptp.uni) (L2 tptp.uni)) (let ((_let_1 (tptp.list A))) (and (tptp.sort1 _let_1 L1) (tptp.sort1 _let_1 L2) (= L (tptp.infix_plpl A L1 (tptp.cons A X L2)))))))))
(declare-sort tptp.expr1 0)
(declare-fun tptp.expr () tptp.ty)
(declare-fun tptp.cte1 (Int) tptp.expr1)
(declare-fun tptp.plus1 (tptp.expr1 tptp.expr1) tptp.expr1)
(declare-fun tptp.minus1 (tptp.expr1 tptp.expr1) tptp.expr1)
(declare-fun tptp.mult1 (tptp.expr1 tptp.expr1) tptp.expr1)
(declare-fun tptp.match_expr1 (tptp.ty tptp.expr1 tptp.uni tptp.uni tptp.uni tptp.uni) tptp.uni)
(assert (forall ((A tptp.ty) (X tptp.expr1) (X1 tptp.uni) (X2 tptp.uni) (X3 tptp.uni) (X4 tptp.uni)) (tptp.sort1 A (tptp.match_expr1 A X X1 X2 X3 X4))))
(assert (forall ((A tptp.ty) (Z tptp.uni) (Z1 tptp.uni) (Z2 tptp.uni) (Z3 tptp.uni) (U Int)) (=> (tptp.sort1 A Z) (= (tptp.match_expr1 A (tptp.cte1 U) Z Z1 Z2 Z3) Z))))
(assert (forall ((A tptp.ty) (Z tptp.uni) (Z1 tptp.uni) (Z2 tptp.uni) (Z3 tptp.uni) (U tptp.expr1) (U1 tptp.expr1)) (=> (tptp.sort1 A Z1) (= (tptp.match_expr1 A (tptp.plus1 U U1) Z Z1 Z2 Z3) Z1))))
(assert (forall ((A tptp.ty) (Z tptp.uni) (Z1 tptp.uni) (Z2 tptp.uni) (Z3 tptp.uni) (U tptp.expr1) (U1 tptp.expr1)) (=> (tptp.sort1 A Z2) (= (tptp.match_expr1 A (tptp.minus1 U U1) Z Z1 Z2 Z3) Z2))))
(assert (forall ((A tptp.ty) (Z tptp.uni) (Z1 tptp.uni) (Z2 tptp.uni) (Z3 tptp.uni) (U tptp.expr1) (U1 tptp.expr1)) (=> (tptp.sort1 A Z3) (= (tptp.match_expr1 A (tptp.mult1 U U1) Z Z1 Z2 Z3) Z3))))
(assert (forall ((U Int) (V tptp.expr1) (V1 tptp.expr1)) (not (= (tptp.cte1 U) (tptp.plus1 V V1)))))
(assert (forall ((U Int) (V tptp.expr1) (V1 tptp.expr1)) (not (= (tptp.cte1 U) (tptp.minus1 V V1)))))
(assert (forall ((U Int) (V tptp.expr1) (V1 tptp.expr1)) (not (= (tptp.cte1 U) (tptp.mult1 V V1)))))
(assert (forall ((U tptp.expr1) (U1 tptp.expr1) (V tptp.expr1) (V1 tptp.expr1)) (not (= (tptp.plus1 U U1) (tptp.minus1 V V1)))))
(assert (forall ((U tptp.expr1) (U1 tptp.expr1) (V tptp.expr1) (V1 tptp.expr1)) (not (= (tptp.plus1 U U1) (tptp.mult1 V V1)))))
(assert (forall ((U tptp.expr1) (U1 tptp.expr1) (V tptp.expr1) (V1 tptp.expr1)) (not (= (tptp.minus1 U U1) (tptp.mult1 V V1)))))
(declare-fun tptp.cte_proj_11 (tptp.expr1) Int)
(assert (forall ((U Int)) (= (tptp.cte_proj_11 (tptp.cte1 U)) U)))
(declare-fun tptp.plus_proj_11 (tptp.expr1) tptp.expr1)
(assert (forall ((U tptp.expr1) (U1 tptp.expr1)) (= (tptp.plus_proj_11 (tptp.plus1 U U1)) U)))
(declare-fun tptp.plus_proj_21 (tptp.expr1) tptp.expr1)
(assert (forall ((U tptp.expr1) (U1 tptp.expr1)) (= (tptp.plus_proj_21 (tptp.plus1 U U1)) U1)))
(declare-fun tptp.minus_proj_11 (tptp.expr1) tptp.expr1)
(assert (forall ((U tptp.expr1) (U1 tptp.expr1)) (= (tptp.minus_proj_11 (tptp.minus1 U U1)) U)))
(declare-fun tptp.minus_proj_21 (tptp.expr1) tptp.expr1)
(assert (forall ((U tptp.expr1) (U1 tptp.expr1)) (= (tptp.minus_proj_21 (tptp.minus1 U U1)) U1)))
(declare-fun tptp.mult_proj_11 (tptp.expr1) tptp.expr1)
(assert (forall ((U tptp.expr1) (U1 tptp.expr1)) (= (tptp.mult_proj_11 (tptp.mult1 U U1)) U)))
(declare-fun tptp.mult_proj_21 (tptp.expr1) tptp.expr1)
(assert (forall ((U tptp.expr1) (U1 tptp.expr1)) (= (tptp.mult_proj_21 (tptp.mult1 U U1)) U1)))
(assert (forall ((U tptp.expr1)) (or (= U (tptp.cte1 (tptp.cte_proj_11 U))) (= U (tptp.plus1 (tptp.plus_proj_11 U) (tptp.plus_proj_21 U))) (= U (tptp.minus1 (tptp.minus_proj_11 U) (tptp.minus_proj_21 U))) (= U (tptp.mult1 (tptp.mult_proj_11 U) (tptp.mult_proj_21 U))))))
(declare-fun tptp.eval_expr1 (tptp.expr1) Int)
(assert (and (forall ((X Int)) (= (tptp.eval_expr1 (tptp.cte1 X)) X)) (forall ((X tptp.expr1) (X1 tptp.expr1)) (= (tptp.eval_expr1 (tptp.plus1 X X1)) (+ (tptp.eval_expr1 X) (tptp.eval_expr1 X1)))) (forall ((X tptp.expr1) (X1 tptp.expr1)) (= (tptp.eval_expr1 (tptp.minus1 X X1)) (- (tptp.eval_expr1 X) (tptp.eval_expr1 X1)))) (forall ((X tptp.expr1) (X1 tptp.expr1)) (= (tptp.eval_expr1 (tptp.mult1 X X1)) (* (tptp.eval_expr1 X) (tptp.eval_expr1 X1))))))
(declare-sort tptp.asm1 0)
(declare-fun tptp.asm () tptp.ty)
(declare-fun tptp.push1 (Int) tptp.asm1)
(declare-fun tptp.add1 () tptp.asm1)
(declare-fun tptp.sub1 () tptp.asm1)
(declare-fun tptp.mul1 () tptp.asm1)
(declare-fun tptp.match_asm1 (tptp.ty tptp.asm1 tptp.uni tptp.uni tptp.uni tptp.uni) tptp.uni)
(assert (forall ((A tptp.ty) (X tptp.asm1) (X1 tptp.uni) (X2 tptp.uni) (X3 tptp.uni) (X4 tptp.uni)) (tptp.sort1 A (tptp.match_asm1 A X X1 X2 X3 X4))))
(assert (forall ((A tptp.ty) (Z tptp.uni) (Z1 tptp.uni) (Z2 tptp.uni) (Z3 tptp.uni) (U Int)) (=> (tptp.sort1 A Z) (= (tptp.match_asm1 A (tptp.push1 U) Z Z1 Z2 Z3) Z))))
(assert (forall ((A tptp.ty) (Z tptp.uni) (Z1 tptp.uni) (Z2 tptp.uni) (Z3 tptp.uni)) (=> (tptp.sort1 A Z1) (= (tptp.match_asm1 A tptp.add1 Z Z1 Z2 Z3) Z1))))
(assert (forall ((A tptp.ty) (Z tptp.uni) (Z1 tptp.uni) (Z2 tptp.uni) (Z3 tptp.uni)) (=> (tptp.sort1 A Z2) (= (tptp.match_asm1 A tptp.sub1 Z Z1 Z2 Z3) Z2))))
(assert (forall ((A tptp.ty) (Z tptp.uni) (Z1 tptp.uni) (Z2 tptp.uni) (Z3 tptp.uni)) (=> (tptp.sort1 A Z3) (= (tptp.match_asm1 A tptp.mul1 Z Z1 Z2 Z3) Z3))))
(assert (forall ((U Int)) (not (= (tptp.push1 U) tptp.add1))))
(assert (forall ((U Int)) (not (= (tptp.push1 U) tptp.sub1))))
(assert (forall ((U Int)) (not (= (tptp.push1 U) tptp.mul1))))
(assert (not (= tptp.add1 tptp.sub1)))
(assert (not (= tptp.add1 tptp.mul1)))
(assert (not (= tptp.sub1 tptp.mul1)))
(declare-fun tptp.push_proj_11 (tptp.asm1) Int)
(assert (forall ((U Int)) (= (tptp.push_proj_11 (tptp.push1 U)) U)))
(assert (forall ((U tptp.asm1)) (or (= U (tptp.push1 (tptp.push_proj_11 U))) (= U tptp.add1) (= U tptp.sub1) (= U tptp.mul1))))
(declare-sort tptp.list_asm 0)
(declare-sort tptp.list_int 0)
(declare-fun tptp.compute1 (tptp.list_int tptp.list_asm) tptp.list_int)
(declare-fun tptp.t2tb1 (tptp.list_int) tptp.uni)
(assert (forall ((X tptp.list_int)) (tptp.sort1 (tptp.list tptp.int) (tptp.t2tb1 X))))
(declare-fun tptp.tb2t1 (tptp.uni) tptp.list_int)
(assert (forall ((I tptp.list_int)) (= (tptp.tb2t1 (tptp.t2tb1 I)) I)))
(assert (forall ((J tptp.uni)) (= (tptp.t2tb1 (tptp.tb2t1 J)) J)))
(declare-fun tptp.t2tb (tptp.list_asm) tptp.uni)
(assert (forall ((X tptp.list_asm)) (tptp.sort1 (tptp.list tptp.asm) (tptp.t2tb X))))
(declare-fun tptp.tb2t (tptp.uni) tptp.list_asm)
(assert (forall ((I tptp.list_asm)) (= (tptp.tb2t (tptp.t2tb I)) I)))
(assert (forall ((J tptp.uni)) (= (tptp.t2tb (tptp.tb2t J)) J)))
(declare-fun tptp.t2tb2 (tptp.asm1) tptp.uni)
(assert (forall ((X tptp.asm1)) (tptp.sort1 tptp.asm (tptp.t2tb2 X))))
(declare-fun tptp.tb2t2 (tptp.uni) tptp.asm1)
(assert (forall ((I tptp.asm1)) (= (tptp.tb2t2 (tptp.t2tb2 I)) I)))
(assert (forall ((J tptp.uni)) (= (tptp.t2tb2 (tptp.tb2t2 J)) J)))
(declare-fun tptp.t2tb3 (Int) tptp.uni)
(assert (forall ((X Int)) (tptp.sort1 tptp.int (tptp.t2tb3 X))))
(declare-fun tptp.tb2t3 (tptp.uni) Int)
(assert (forall ((I Int)) (= (tptp.tb2t3 (tptp.t2tb3 I)) I)))
(assert (forall ((J tptp.uni)) (= (tptp.t2tb3 (tptp.tb2t3 J)) J)))
(assert (forall ((S tptp.list_int)) (and (= (tptp.compute1 S (tptp.tb2t (tptp.nil tptp.asm))) S) (forall ((X tptp.asm1) (X1 tptp.list_asm)) (let ((_let_1 (tptp.tb2t1 (tptp.nil tptp.int)))) (let ((_let_2 (= (tptp.compute1 _let_1 (tptp.tb2t (tptp.cons tptp.asm (tptp.t2tb2 X) (tptp.t2tb X1)))) _let_1))) (and (forall ((X2 Int)) (let ((_let_1 (tptp.nil tptp.int))) (=> (= X (tptp.push1 X2)) (= (tptp.compute1 (tptp.tb2t1 _let_1) (tptp.tb2t (tptp.cons tptp.asm (tptp.t2tb2 X) (tptp.t2tb X1)))) (tptp.compute1 (tptp.tb2t1 (tptp.cons tptp.int (tptp.t2tb3 X2) _let_1)) X1))))) (=> (= X tptp.add1) _let_2) (=> (= X tptp.sub1) _let_2) (=> (= X tptp.mul1) _let_2) (forall ((X2 Int) (X3 tptp.list_int)) (let ((_let_1 (tptp.tb2t1 (tptp.cons tptp.int (tptp.t2tb3 X2) (tptp.t2tb1 X3))))) (let ((_let_2 (= (tptp.compute1 _let_1 (tptp.tb2t (tptp.cons tptp.asm (tptp.t2tb2 X) (tptp.t2tb X1)))) _let_1))) (and (=> (= X3 (tptp.tb2t1 (tptp.nil tptp.int))) (and (forall ((X4 Int)) (let ((_let_1 (tptp.cons tptp.int (tptp.t2tb3 X2) (tptp.t2tb1 X3)))) (=> (= X (tptp.push1 X4)) (= (tptp.compute1 (tptp.tb2t1 _let_1) (tptp.tb2t (tptp.cons tptp.asm (tptp.t2tb2 X) (tptp.t2tb X1)))) (tptp.compute1 (tptp.tb2t1 (tptp.cons tptp.int (tptp.t2tb3 X4) _let_1)) X1))))) (=> (= X tptp.add1) _let_2) (=> (= X tptp.sub1) _let_2) (=> (= X tptp.mul1) _let_2))) (forall ((X4 Int) (X5 tptp.list_int)) (let ((_let_1 (tptp.t2tb1 X5))) (let ((_let_2 (tptp.compute1 (tptp.tb2t1 (tptp.cons tptp.int (tptp.t2tb3 X2) (tptp.t2tb1 X3))) (tptp.tb2t (tptp.cons tptp.asm (tptp.t2tb2 X) (tptp.t2tb X1)))))) (=> (= X3 (tptp.tb2t1 (tptp.cons tptp.int (tptp.t2tb3 X4) _let_1))) (and (forall ((X6 Int)) (let ((_let_1 (tptp.cons tptp.int (tptp.t2tb3 X2) (tptp.t2tb1 X3)))) (=> (= X (tptp.push1 X6)) (= (tptp.compute1 (tptp.tb2t1 _let_1) (tptp.tb2t (tptp.cons tptp.asm (tptp.t2tb2 X) (tptp.t2tb X1)))) (tptp.compute1 (tptp.tb2t1 (tptp.cons tptp.int (tptp.t2tb3 X6) _let_1)) X1))))) (=> (= X tptp.add1) (= _let_2 (tptp.compute1 (tptp.tb2t1 (tptp.cons tptp.int (tptp.t2tb3 (+ X4 X2)) _let_1)) X1))) (=> (= X tptp.sub1) (= _let_2 (tptp.compute1 (tptp.tb2t1 (tptp.cons tptp.int (tptp.t2tb3 (- X4 X2)) _let_1)) X1))) (=> (= X tptp.mul1) (= _let_2 (tptp.compute1 (tptp.tb2t1 (tptp.cons tptp.int (tptp.t2tb3 (* X4 X2)) _let_1)) X1)))))))))))))))))))
(declare-fun tptp.compile1 (tptp.expr1) tptp.list_asm)
(assert (and (forall ((X Int)) (= (tptp.compile1 (tptp.cte1 X)) (tptp.tb2t (tptp.cons tptp.asm (tptp.t2tb2 (tptp.push1 X)) (tptp.nil tptp.asm))))) (forall ((X tptp.expr1) (X1 tptp.expr1)) (= (tptp.compile1 (tptp.plus1 X X1)) (tptp.tb2t (tptp.infix_plpl tptp.asm (tptp.t2tb (tptp.compile1 X)) (tptp.infix_plpl tptp.asm (tptp.t2tb (tptp.compile1 X1)) (tptp.cons tptp.asm (tptp.t2tb2 tptp.add1) (tptp.nil tptp.asm))))))) (forall ((X tptp.expr1) (X1 tptp.expr1)) (= (tptp.compile1 (tptp.minus1 X X1)) (tptp.tb2t (tptp.infix_plpl tptp.asm (tptp.t2tb (tptp.compile1 X)) (tptp.infix_plpl tptp.asm (tptp.t2tb (tptp.compile1 X1)) (tptp.cons tptp.asm (tptp.t2tb2 tptp.sub1) (tptp.nil tptp.asm))))))) (forall ((X tptp.expr1) (X1 tptp.expr1)) (= (tptp.compile1 (tptp.mult1 X X1)) (tptp.tb2t (tptp.infix_plpl tptp.asm (tptp.t2tb (tptp.compile1 X)) (tptp.infix_plpl tptp.asm (tptp.t2tb (tptp.compile1 X1)) (tptp.cons tptp.asm (tptp.t2tb2 tptp.mul1) (tptp.nil tptp.asm)))))))))
(assert (not (forall ((S tptp.list_int) (R tptp.list_asm) (X Int)) (let ((_let_1 (tptp.cte1 X))) (let ((_let_2 (tptp.t2tb R))) (let ((_let_3 (tptp.tb2t (tptp.infix_plpl tptp.asm (tptp.t2tb (tptp.compile1 _let_1)) _let_2)))) (=> (= _let_3 (tptp.tb2t (tptp.cons tptp.asm (tptp.t2tb2 (tptp.push1 X)) _let_2))) (= (tptp.compute1 S _let_3) (tptp.compute1 (tptp.tb2t1 (tptp.cons tptp.int (tptp.t2tb3 (tptp.eval_expr1 _let_1)) (tptp.t2tb1 S))) R)))))))))
(check-sat)
(exit)
